p edge 75 600 60
e 16 22
e 16 40
e 16 4
e 16 17
e 16 26
e 16 7
e 16 72
e 16 58
e 16 34
e 16 52
e 16 61
e 16 28
e 16 46
e 16 55
e 16 1
e 16 27
e 22 47
e 22 23
e 22 31
e 22 6
e 22 14
e 22 17
e 22 59
e 22 63
e 22 49
e 22 39
e 22 43
e 22 2
e 22 21
e 22 66
e 22 75
e 37 54
e 37 53
e 37 39
e 37 38
e 37 20
e 37 1
e 37 61
e 37 70
e 37 56
e 37 65
e 37 51
e 37 69
e 37 7
e 37 46
e 37 41
e 37 45
e 54 51
e 54 13
e 54 8
e 54 19
e 54 62
e 54 30
e 54 25
e 54 36
e 54 47
e 54 50
e 54 40
e 54 56
e 54 60
e 54 69
e 54 59
e 68 69
e 68 10
e 68 24
e 68 57
e 68 8
e 68 66
e 68 41
e 68 3
e 68 60
e 68 33
e 68 9
e 68 50
e 68 23
e 68 4
e 68 34
e 68 7
e 69 3
e 69 52
e 69 44
e 69 58
e 69 31
e 69 64
e 69 7
e 69 67
e 69 51
e 69 62
e 69 43
e 69 19
e 69 10
e 27 40
e 27 6
e 27 17
e 27 62
e 27 30
e 27 39
e 27 9
e 27 26
e 27 61
e 27 2
e 27 51
e 27 24
e 27 46
e 27 5
e 27 32
e 40 11
e 40 48
e 40 13
e 40 47
e 40 23
e 40 65
e 40 17
e 40 7
e 40 50
e 40 20
e 40 45
e 40 39
e 40 12
e 71 74
e 71 7
e 71 48
e 71 32
e 71 26
e 71 65
e 71 46
e 71 49
e 71 11
e 71 41
e 71 24
e 71 13
e 71 44
e 71 8
e 71 20
e 71 50
e 74 17
e 74 47
e 74 39
e 74 1
e 74 12
e 74 23
e 74 15
e 74 64
e 74 26
e 74 67
e 74 29
e 74 73
e 74 5
e 74 46
e 74 57
e 10 64
e 10 1
e 10 63
e 10 72
e 10 58
e 10 26
e 10 35
e 10 7
e 10 2
e 10 66
e 10 33
e 10 28
e 10 41
e 10 3
e 64 49
e 64 30
e 64 43
e 64 14
e 64 31
e 64 65
e 64 4
e 64 34
e 64 29
e 64 2
e 64 19
e 64 72
e 64 67
e 30 42
e 30 46
e 30 41
e 30 2
e 30 21
e 30 24
e 30 73
e 30 59
e 30 11
e 30 52
e 30 28
e 30 75
e 30 15
e 42 33
e 42 6
e 42 17
e 42 28
e 42 39
e 42 70
e 42 15
e 42 50
e 42 26
e 42 24
e 42 13
e 42 73
e 42 8
e 42 19
e 42 58
e 1 15
e 1 38
e 1 47
e 1 51
e 1 46
e 1 4
e 1 3
e 1 45
e 1 67
e 1 26
e 1 62
e 1 12
e 15 12
e 15 29
e 15 66
e 15 47
e 15 50
e 15 36
e 15 45
e 15 73
e 15 72
e 15 35
e 15 9
e 15 21
e 12 8
e 12 57
e 12 75
e 12 70
e 12 19
e 12 55
e 12 50
e 12 4
e 12 59
e 12 67
e 12 20
e 12 29
e 49 24
e 49 13
e 49 35
e 49 53
e 49 41
e 49 62
e 49 52
e 49 44
e 49 9
e 49 39
e 49 23
e 49 70
e 49 65
e 47 23
e 47 6
e 47 25
e 47 17
e 47 20
e 47 31
e 47 34
e 47 18
e 47 13
e 47 67
e 63 75
e 63 29
e 63 70
e 63 24
e 63 8
e 63 52
e 63 33
e 63 36
e 63 67
e 63 9
e 63 31
e 63 61
e 63 53
e 63 56
e 75 23
e 75 4
e 75 45
e 75 56
e 75 18
e 75 2
e 75 21
e 75 51
e 75 62
e 75 65
e 75 46
e 75 11
e 34 39
e 34 48
e 34 29
e 34 32
e 34 52
e 34 8
e 34 19
e 34 36
e 34 3
e 34 33
e 34 59
e 34 72
e 39 70
e 39 60
e 39 5
e 39 33
e 39 73
e 39 28
e 39 43
e 39 4
e 48 58
e 48 67
e 48 57
e 48 52
e 48 29
e 48 21
e 48 5
e 48 70
e 48 55
e 48 73
e 48 33
e 48 17
e 48 23
e 26 44
e 26 13
e 26 56
e 26 20
e 26 60
e 26 55
e 26 23
e 26 7
e 26 67
e 44 65
e 44 29
e 44 46
e 44 59
e 44 21
e 44 24
e 44 58
e 44 67
e 44 6
e 44 66
e 44 31
e 44 23
e 4 11
e 4 29
e 4 6
e 4 41
e 4 50
e 4 45
e 4 8
e 4 53
e 4 21
e 33 61
e 33 23
e 33 41
e 33 18
e 33 35
e 33 53
e 33 52
e 33 6
e 33 31
e 61 25
e 61 56
e 61 9
e 61 50
e 61 73
e 61 2
e 61 13
e 61 57
e 61 19
e 61 11
e 61 3
e 3 28
e 3 55
e 3 32
e 3 9
e 3 31
e 3 73
e 3 67
e 3 21
e 3 7
e 3 56
e 23 17
e 23 51
e 23 59
e 23 31
e 23 5
e 25 66
e 25 56
e 25 65
e 25 46
e 25 36
e 25 5
e 25 62
e 25 57
e 25 14
e 25 43
e 25 52
e 25 38
e 25 9
e 66 17
e 66 31
e 66 59
e 66 65
e 66 57
e 66 24
e 66 43
e 66 67
e 66 38
e 66 60
e 17 8
e 17 46
e 17 6
e 17 35
e 17 21
e 17 13
e 18 45
e 18 35
e 18 53
e 18 62
e 18 21
e 18 6
e 18 9
e 18 52
e 18 56
e 18 60
e 18 28
e 18 41
e 18 5
e 45 52
e 45 13
e 45 20
e 45 56
e 45 51
e 45 60
e 45 50
e 45 24
e 45 72
e 58 21
e 58 70
e 58 24
e 58 5
e 58 35
e 58 19
e 58 38
e 58 52
e 58 36
e 58 9
e 67 32
e 67 35
e 67 11
e 67 6
e 29 38
e 29 2
e 29 5
e 29 55
e 29 41
e 29 14
e 29 28
e 6 70
e 6 73
e 6 35
e 6 62
e 6 21
e 6 19
e 70 36
e 70 55
e 70 56
e 70 51
e 70 57
e 70 46
e 70 41
e 46 36
e 46 28
e 46 53
e 46 59
e 7 11
e 7 19
e 7 56
e 7 28
e 7 41
e 7 59
e 7 31
e 11 32
e 11 41
e 11 50
e 11 62
e 11 8
e 11 57
e 11 20
e 11 14
e 32 72
e 32 14
e 32 43
e 32 31
e 32 51
e 32 60
e 32 55
e 32 2
e 32 36
e 32 5
e 28 56
e 28 73
e 28 20
e 28 72
e 28 62
e 28 38
e 41 43
e 41 35
e 41 38
e 50 60
e 50 9
e 50 59
e 50 19
e 50 8
e 52 14
e 52 72
e 52 57
e 52 13
e 55 60
e 55 14
e 55 36
e 55 20
e 55 53
e 55 62
e 55 2
e 55 43
e 14 65
e 14 73
e 14 59
e 14 53
e 14 62
e 14 38
e 14 24
e 14 5
e 65 36
e 65 53
e 65 43
e 65 5
e 65 73
e 65 38
e 36 56
e 36 31
e 36 72
e 36 38
e 36 5
e 8 73
e 8 53
e 8 56
e 8 2
e 8 60
e 53 2
e 53 21
e 53 24
e 53 38
e 53 20
e 72 51
e 72 13
e 72 35
e 72 19
e 72 38
e 72 9
e 51 73
e 51 59
e 51 20
e 51 31
e 51 43
e 73 57
e 73 38
e 56 2
e 35 62
e 35 19
e 35 43
e 35 9
e 35 20
e 57 21
e 57 43
e 57 19
e 57 60
e 57 59
e 62 13
e 62 9
e 59 13
e 59 24
e 43 24
e 43 20
e 43 9
e 9 13
e 13 38
e 24 20
e 21 19
e 21 60
e 31 60
e 31 2
e 60 5
e 60 19
e 2 20
e 2 5
e 38 5
